5 5
4 41 1 74 0 10 3 57 2 7
0 50 4 91 1 52 3 33 2 1
0 53 1 60 3 34 4 4 2 17
2 4 3 43 4 90 1 4 0 1
1 71 0 94 3 50 4 73 2 61
-1
0 1 2 4 5
0 2 3 4 5
0 1 5
0 2 5
0 1 2 4 5
-2
59 155 272 198
218 234 267 253
80 265
64 210
99 212 427 548

380 8
5 21 2 10 19
20 1 11 7 18
15 4 24 14 9
16 22 3 12 8
0 17 6 23 13
